(set-option :produce-models true)
(set-logic QF_LRA)
(set-info :notes | Strip-packing problem.|)
(declare-fun x0 () Real)
(declare-fun y0 () Real)
(declare-fun x1 () Real)
(declare-fun y1 () Real)
(declare-fun x2 () Real)
(declare-fun y2 () Real)
(declare-fun x3 () Real)
(declare-fun y3 () Real)
(declare-fun x4 () Real)
(declare-fun y4 () Real)
(declare-fun x5 () Real)
(declare-fun y5 () Real)
(declare-fun x6 () Real)
(declare-fun y6 () Real)
(declare-fun x7 () Real)
(declare-fun y7 () Real)
(declare-fun x8 () Real)
(declare-fun y8 () Real)
(declare-fun x9 () Real)
(declare-fun y9 () Real)
(declare-fun x10 () Real)
(declare-fun y10 () Real)
(declare-fun x11 () Real)
(declare-fun y11 () Real)
(declare-fun z () Real)
(declare-fun c () Real)
(assert (and (= c z) (and (>= x0 0) 
(and (>= y0 0) 
(and (>= x1 0) 
(and (>= y1 0) 
(and (>= x2 0) 
(and (>= y2 0) 
(and (>= x3 0) 
(and (>= y3 0) 
(and (>= x4 0) 
(and (>= y4 0) 
(and (>= x5 0) 
(and (>= y5 0) 
(and (>= x6 0) 
(and (>= y6 0) 
(and (>= x7 0) 
(and (>= y7 0) 
(and (>= x8 0) 
(and (>= y8 0) 
(and (>= x9 0) 
(and (>= y9 0) 
(and (>= x10 0) 
(and (>= y10 0) 
(and (>= x11 0) 
(and (>= y11 0) 
(and (>= z 0) 
(and (>= c 0) 
(and (<= (+ x0 0.1813505815) z) 
(and (<= 0.9453828006 y0) 
(and (<= y0 1.73205080757) 
(and (<= x0 (- 4.5209193396 0.1813505815)) 
(and (>= x0 0) 
(and (<= (+ x1 0.8464610774) z) 
(and (<= 0.698689695 y1) 
(and (<= y1 1.73205080757) 
(and (<= x1 (- 4.5209193396 0.8464610774)) 
(and (>= x1 0) 
(and (<= (+ x2 0.8108141856) z) 
(and (<= 0.6910442331 y2) 
(and (<= y2 1.73205080757) 
(and (<= x2 (- 4.5209193396 0.8108141856)) 
(and (>= x2 0) 
(and (<= (+ x3 0.9113057768) z) 
(and (<= 0.621577963 y3) 
(and (<= y3 1.73205080757) 
(and (<= x3 (- 4.5209193396 0.9113057768)) 
(and (>= x3 0) 
(and (<= (+ x4 0.7701684622) z) 
(and (<= 0.5541577863 y4) 
(and (<= y4 1.73205080757) 
(and (<= x4 (- 4.5209193396 0.7701684622)) 
(and (>= x4 0) 
(and (<= (+ x5 0.1884166434) z) 
(and (<= 0.5245584116 y5) 
(and (<= y5 1.73205080757) 
(and (<= x5 (- 4.5209193396 0.1884166434)) 
(and (>= x5 0) 
(and (<= (+ x6 0.6508201481) z) 
(and (<= 0.4258594534 y6) 
(and (<= y6 1.73205080757) 
(and (<= x6 (- 4.5209193396 0.6508201481)) 
(and (>= x6 0) 
(and (<= (+ x7 0.9508386779) z) 
(and (<= 0.3502070739 y7) 
(and (<= y7 1.73205080757) 
(and (<= x7 (- 4.5209193396 0.9508386779)) 
(and (>= x7 0) 
(and (<= (+ x8 0.9801430779) z) 
(and (<= 0.2430978085 y8) 
(and (<= y8 1.73205080757) 
(and (<= x8 (- 4.5209193396 0.9801430779)) 
(and (>= x8 0) 
(and (<= (+ x9 0.8332397711) z) 
(and (<= 0.2184169514 y9) 
(and (<= y9 1.73205080757) 
(and (<= x9 (- 4.5209193396 0.8332397711)) 
(and (>= x9 0) 
(and (<= (+ x10 0.5038438302) z) 
(and (<= 0.1432359631 y10) 
(and (<= y10 1.73205080757) 
(and (<= x10 (- 4.5209193396 0.5038438302)) 
(and (>= x10 0) 
(and (<= (+ x11 0.3738475166) z) 
(and (<= 0.0990858381 y11) 
(and (<= y11 1.73205080757) 
(and (<= x11 (- 4.5209193396 0.3738475166)) 
(and (>= x11 0) 
(and (<= c 4.5209193396) 
(and (or (<= (+ x0 0.1813505815) x1) (or (<= (+ x1 0.8464610774) x0) (or (>= (- y0 0.9453828006) y1) (or (>= (- y1 0.698689695) y0))))) 
(and (or (<= (+ x0 0.1813505815) x2) (or (<= (+ x2 0.8108141856) x0) (or (>= (- y0 0.9453828006) y2) (or (>= (- y2 0.6910442331) y0))))) 
(and (or (<= (+ x0 0.1813505815) x3) (or (<= (+ x3 0.9113057768) x0) (or (>= (- y0 0.9453828006) y3) (or (>= (- y3 0.621577963) y0))))) 
(and (or (<= (+ x0 0.1813505815) x4) (or (<= (+ x4 0.7701684622) x0) (or (>= (- y0 0.9453828006) y4) (or (>= (- y4 0.5541577863) y0))))) 
(and (or (<= (+ x0 0.1813505815) x5) (or (<= (+ x5 0.1884166434) x0) (or (>= (- y0 0.9453828006) y5) (or (>= (- y5 0.5245584116) y0))))) 
(and (or (<= (+ x0 0.1813505815) x6) (or (<= (+ x6 0.6508201481) x0) (or (>= (- y0 0.9453828006) y6) (or (>= (- y6 0.4258594534) y0))))) 
(and (or (<= (+ x0 0.1813505815) x7) (or (<= (+ x7 0.9508386779) x0) (or (>= (- y0 0.9453828006) y7) (or (>= (- y7 0.3502070739) y0))))) 
(and (or (<= (+ x0 0.1813505815) x8) (or (<= (+ x8 0.9801430779) x0) (or (>= (- y0 0.9453828006) y8) (or (>= (- y8 0.2430978085) y0))))) 
(and (or (<= (+ x0 0.1813505815) x9) (or (<= (+ x9 0.8332397711) x0) (or (>= (- y0 0.9453828006) y9) (or (>= (- y9 0.2184169514) y0))))) 
(and (or (<= (+ x0 0.1813505815) x10) (or (<= (+ x10 0.5038438302) x0) (or (>= (- y0 0.9453828006) y10) (or (>= (- y10 0.1432359631) y0))))) 
(and (or (<= (+ x0 0.1813505815) x11) (or (<= (+ x11 0.3738475166) x0) (or (>= (- y0 0.9453828006) y11) (or (>= (- y11 0.0990858381) y0))))) 
(and (or (<= (+ x1 0.8464610774) x2) (or (<= (+ x2 0.8108141856) x1) (or (>= (- y1 0.698689695) y2) (or (>= (- y2 0.6910442331) y1))))) 
(and (or (<= (+ x1 0.8464610774) x3) (or (<= (+ x3 0.9113057768) x1) (or (>= (- y1 0.698689695) y3) (or (>= (- y3 0.621577963) y1))))) 
(and (or (<= (+ x1 0.8464610774) x4) (or (<= (+ x4 0.7701684622) x1) (or (>= (- y1 0.698689695) y4) (or (>= (- y4 0.5541577863) y1))))) 
(and (or (<= (+ x1 0.8464610774) x5) (or (<= (+ x5 0.1884166434) x1) (or (>= (- y1 0.698689695) y5) (or (>= (- y5 0.5245584116) y1))))) 
(and (or (<= (+ x1 0.8464610774) x6) (or (<= (+ x6 0.6508201481) x1) (or (>= (- y1 0.698689695) y6) (or (>= (- y6 0.4258594534) y1))))) 
(and (or (<= (+ x1 0.8464610774) x7) (or (<= (+ x7 0.9508386779) x1) (or (>= (- y1 0.698689695) y7) (or (>= (- y7 0.3502070739) y1))))) 
(and (or (<= (+ x1 0.8464610774) x8) (or (<= (+ x8 0.9801430779) x1) (or (>= (- y1 0.698689695) y8) (or (>= (- y8 0.2430978085) y1))))) 
(and (or (<= (+ x1 0.8464610774) x9) (or (<= (+ x9 0.8332397711) x1) (or (>= (- y1 0.698689695) y9) (or (>= (- y9 0.2184169514) y1))))) 
(and (or (<= (+ x1 0.8464610774) x10) (or (<= (+ x10 0.5038438302) x1) (or (>= (- y1 0.698689695) y10) (or (>= (- y10 0.1432359631) y1))))) 
(and (or (<= (+ x1 0.8464610774) x11) (or (<= (+ x11 0.3738475166) x1) (or (>= (- y1 0.698689695) y11) (or (>= (- y11 0.0990858381) y1))))) 
(and (or (<= (+ x2 0.8108141856) x3) (or (<= (+ x3 0.9113057768) x2) (or (>= (- y2 0.6910442331) y3) (or (>= (- y3 0.621577963) y2))))) 
(and (or (<= (+ x2 0.8108141856) x4) (or (<= (+ x4 0.7701684622) x2) (or (>= (- y2 0.6910442331) y4) (or (>= (- y4 0.5541577863) y2))))) 
(and (or (<= (+ x2 0.8108141856) x5) (or (<= (+ x5 0.1884166434) x2) (or (>= (- y2 0.6910442331) y5) (or (>= (- y5 0.5245584116) y2))))) 
(and (or (<= (+ x2 0.8108141856) x6) (or (<= (+ x6 0.6508201481) x2) (or (>= (- y2 0.6910442331) y6) (or (>= (- y6 0.4258594534) y2))))) 
(and (or (<= (+ x2 0.8108141856) x7) (or (<= (+ x7 0.9508386779) x2) (or (>= (- y2 0.6910442331) y7) (or (>= (- y7 0.3502070739) y2))))) 
(and (or (<= (+ x2 0.8108141856) x8) (or (<= (+ x8 0.9801430779) x2) (or (>= (- y2 0.6910442331) y8) (or (>= (- y8 0.2430978085) y2))))) 
(and (or (<= (+ x2 0.8108141856) x9) (or (<= (+ x9 0.8332397711) x2) (or (>= (- y2 0.6910442331) y9) (or (>= (- y9 0.2184169514) y2))))) 
(and (or (<= (+ x2 0.8108141856) x10) (or (<= (+ x10 0.5038438302) x2) (or (>= (- y2 0.6910442331) y10) (or (>= (- y10 0.1432359631) y2))))) 
(and (or (<= (+ x2 0.8108141856) x11) (or (<= (+ x11 0.3738475166) x2) (or (>= (- y2 0.6910442331) y11) (or (>= (- y11 0.0990858381) y2))))) 
(and (or (<= (+ x3 0.9113057768) x4) (or (<= (+ x4 0.7701684622) x3) (or (>= (- y3 0.621577963) y4) (or (>= (- y4 0.5541577863) y3))))) 
(and (or (<= (+ x3 0.9113057768) x5) (or (<= (+ x5 0.1884166434) x3) (or (>= (- y3 0.621577963) y5) (or (>= (- y5 0.5245584116) y3))))) 
(and (or (<= (+ x3 0.9113057768) x6) (or (<= (+ x6 0.6508201481) x3) (or (>= (- y3 0.621577963) y6) (or (>= (- y6 0.4258594534) y3))))) 
(and (or (<= (+ x3 0.9113057768) x7) (or (<= (+ x7 0.9508386779) x3) (or (>= (- y3 0.621577963) y7) (or (>= (- y7 0.3502070739) y3))))) 
(and (or (<= (+ x3 0.9113057768) x8) (or (<= (+ x8 0.9801430779) x3) (or (>= (- y3 0.621577963) y8) (or (>= (- y8 0.2430978085) y3))))) 
(and (or (<= (+ x3 0.9113057768) x9) (or (<= (+ x9 0.8332397711) x3) (or (>= (- y3 0.621577963) y9) (or (>= (- y9 0.2184169514) y3))))) 
(and (or (<= (+ x3 0.9113057768) x10) (or (<= (+ x10 0.5038438302) x3) (or (>= (- y3 0.621577963) y10) (or (>= (- y10 0.1432359631) y3))))) 
(and (or (<= (+ x3 0.9113057768) x11) (or (<= (+ x11 0.3738475166) x3) (or (>= (- y3 0.621577963) y11) (or (>= (- y11 0.0990858381) y3))))) 
(and (or (<= (+ x4 0.7701684622) x5) (or (<= (+ x5 0.1884166434) x4) (or (>= (- y4 0.5541577863) y5) (or (>= (- y5 0.5245584116) y4))))) 
(and (or (<= (+ x4 0.7701684622) x6) (or (<= (+ x6 0.6508201481) x4) (or (>= (- y4 0.5541577863) y6) (or (>= (- y6 0.4258594534) y4))))) 
(and (or (<= (+ x4 0.7701684622) x7) (or (<= (+ x7 0.9508386779) x4) (or (>= (- y4 0.5541577863) y7) (or (>= (- y7 0.3502070739) y4))))) 
(and (or (<= (+ x4 0.7701684622) x8) (or (<= (+ x8 0.9801430779) x4) (or (>= (- y4 0.5541577863) y8) (or (>= (- y8 0.2430978085) y4))))) 
(and (or (<= (+ x4 0.7701684622) x9) (or (<= (+ x9 0.8332397711) x4) (or (>= (- y4 0.5541577863) y9) (or (>= (- y9 0.2184169514) y4))))) 
(and (or (<= (+ x4 0.7701684622) x10) (or (<= (+ x10 0.5038438302) x4) (or (>= (- y4 0.5541577863) y10) (or (>= (- y10 0.1432359631) y4))))) 
(and (or (<= (+ x4 0.7701684622) x11) (or (<= (+ x11 0.3738475166) x4) (or (>= (- y4 0.5541577863) y11) (or (>= (- y11 0.0990858381) y4))))) 
(and (or (<= (+ x5 0.1884166434) x6) (or (<= (+ x6 0.6508201481) x5) (or (>= (- y5 0.5245584116) y6) (or (>= (- y6 0.4258594534) y5))))) 
(and (or (<= (+ x5 0.1884166434) x7) (or (<= (+ x7 0.9508386779) x5) (or (>= (- y5 0.5245584116) y7) (or (>= (- y7 0.3502070739) y5))))) 
(and (or (<= (+ x5 0.1884166434) x8) (or (<= (+ x8 0.9801430779) x5) (or (>= (- y5 0.5245584116) y8) (or (>= (- y8 0.2430978085) y5))))) 
(and (or (<= (+ x5 0.1884166434) x9) (or (<= (+ x9 0.8332397711) x5) (or (>= (- y5 0.5245584116) y9) (or (>= (- y9 0.2184169514) y5))))) 
(and (or (<= (+ x5 0.1884166434) x10) (or (<= (+ x10 0.5038438302) x5) (or (>= (- y5 0.5245584116) y10) (or (>= (- y10 0.1432359631) y5))))) 
(and (or (<= (+ x5 0.1884166434) x11) (or (<= (+ x11 0.3738475166) x5) (or (>= (- y5 0.5245584116) y11) (or (>= (- y11 0.0990858381) y5))))) 
(and (or (<= (+ x6 0.6508201481) x7) (or (<= (+ x7 0.9508386779) x6) (or (>= (- y6 0.4258594534) y7) (or (>= (- y7 0.3502070739) y6))))) 
(and (or (<= (+ x6 0.6508201481) x8) (or (<= (+ x8 0.9801430779) x6) (or (>= (- y6 0.4258594534) y8) (or (>= (- y8 0.2430978085) y6))))) 
(and (or (<= (+ x6 0.6508201481) x9) (or (<= (+ x9 0.8332397711) x6) (or (>= (- y6 0.4258594534) y9) (or (>= (- y9 0.2184169514) y6))))) 
(and (or (<= (+ x6 0.6508201481) x10) (or (<= (+ x10 0.5038438302) x6) (or (>= (- y6 0.4258594534) y10) (or (>= (- y10 0.1432359631) y6))))) 
(and (or (<= (+ x6 0.6508201481) x11) (or (<= (+ x11 0.3738475166) x6) (or (>= (- y6 0.4258594534) y11) (or (>= (- y11 0.0990858381) y6))))) 
(and (or (<= (+ x7 0.9508386779) x8) (or (<= (+ x8 0.9801430779) x7) (or (>= (- y7 0.3502070739) y8) (or (>= (- y8 0.2430978085) y7))))) 
(and (or (<= (+ x7 0.9508386779) x9) (or (<= (+ x9 0.8332397711) x7) (or (>= (- y7 0.3502070739) y9) (or (>= (- y9 0.2184169514) y7))))) 
(and (or (<= (+ x7 0.9508386779) x10) (or (<= (+ x10 0.5038438302) x7) (or (>= (- y7 0.3502070739) y10) (or (>= (- y10 0.1432359631) y7))))) 
(and (or (<= (+ x7 0.9508386779) x11) (or (<= (+ x11 0.3738475166) x7) (or (>= (- y7 0.3502070739) y11) (or (>= (- y11 0.0990858381) y7))))) 
(and (or (<= (+ x8 0.9801430779) x9) (or (<= (+ x9 0.8332397711) x8) (or (>= (- y8 0.2430978085) y9) (or (>= (- y9 0.2184169514) y8))))) 
(and (or (<= (+ x8 0.9801430779) x10) (or (<= (+ x10 0.5038438302) x8) (or (>= (- y8 0.2430978085) y10) (or (>= (- y10 0.1432359631) y8))))) 
(and (or (<= (+ x8 0.9801430779) x11) (or (<= (+ x11 0.3738475166) x8) (or (>= (- y8 0.2430978085) y11) (or (>= (- y11 0.0990858381) y8))))) 
(and (or (<= (+ x9 0.8332397711) x10) (or (<= (+ x10 0.5038438302) x9) (or (>= (- y9 0.2184169514) y10) (or (>= (- y10 0.1432359631) y9))))) 
(and (or (<= (+ x9 0.8332397711) x11) (or (<= (+ x11 0.3738475166) x9) (or (>= (- y9 0.2184169514) y11) (or (>= (- y11 0.0990858381) y9))))) 
(and (or (<= (+ x10 0.5038438302) x11) (or (<= (+ x11 0.3738475166) x10) (or (>= (- y10 0.1432359631) y11) (or (>= (- y11 0.0990858381) y10))))) )))))))))))))))))))))))))))))))))))))))))))))))))))))))))))))))))))))))))))))))))))))))))))))))))))))))))))))))))))))))))))))))))))))))))))))))))))))))))))
(minimize c)
(check-sat)
(get-objectives)
(exit)
